NAME: US_Cities_TSP_Haversine
TYPE: TSP
DIMENSION: 20
EDGE_WEIGHT_TYPE: EUC_2D
NODE_COORD_SECTION
1 40.72 -74.0
2 39.95 -75.17
3 39.28 -76.62
4 35.23 -80.85
5 35.12 -89.97
6 30.32 -81.7
7 29.77 -95.38
8 30.27 -97.77
9 29.53 -98.47
10 32.75 -97.33
11 32.78 -96.8
12 32.78 -117.15
13 34.05 -118.25
14 37.3 -121.87
15 37.78 -122.42
16 39.78 -86.15
17 33.45 -112.07
18 39.98 -82.98
19 41.88 -87.63
20 42.33 -83.05
EOF